3 
4  40 
5  00 21 34 51 
6  07 23 38 53 
7  08 23 38 53 
8  08 23 38 53 
9  09 24 39 54 
10  09 23 38 53 
11  08 23 38 53 
12  08 23 38 53 
13  08 23 38 53 
14  08 23 38 53 
15  08 23 38 53 
16  08 23 38 53 
17  08 23 38 53 
18  08 23 38 53 
19  08 23 38 53 
20  11 26 41 55 
21  11 26 41 56 
22  11 26 40 58 
23 
0 
